c This is an instance of the heur track of PACE 2020 Challenge, see https://pacechallenge.org/2020/ 
c TYPE: infrastracture 
c ORIGIN: gitlab.com/rvb/mwcarp-ob 
c DESCRIPTION: a road network from the Ob generator by René van Bevern, Christian Komusiewicz, and Manuel Sorge (cities that are divided into several components by a river) 
p tdp 195 340
10 26
10 11
10 9
10 25
26 25
26 27
26 41
11 27
11 12
13 14
13 12
13 29
14 30
14 15
27 28
27 42
27 41
27 12
28 12
28 29
28 43
32 49
32 31
32 33
49 50
49 48
49 56
33 34
33 18
33 50
34 3
34 35
45 46
45 30
45 44
45 29
45 54
46 15
46 47
46 69
50 57
50 51
57 73
57 58
57 56
54 68
54 53
68 69
68 80
68 67
55 71
55 48
55 56
71 72
71 83
61 77
61 60
61 37
61 62
77 76
77 89
72 84
72 56
72 73
84 83
84 85
73 74
73 85
74 58
74 86
74 75
93 94
93 92
93 65
93 105
94 95
94 78
107 108
107 96
107 125
108 109
108 97
108 126
109 98
109 127
115 132
115 114
115 116
132 131
132 133
132 149
129 145
129 111
129 128
129 130
145 144
145 164
145 146
131 114
131 148
136 153
136 119
136 137
153 152
153 170
153 154
146 165
146 130
146 147
165 164
165 181
147 148
147 113
147 182
148 166
148 149
166 183
166 167
154 171
154 137
154 155
171 170
171 188
171 172
161 162
161 160
161 177
162 178
162 143
164 163
164 180
169 186
169 152
169 170
186 187
186 185
187 170
187 188
1 17
1 2
17 18
17 31
2 18
2 3
3 4
4 5
4 19
5 20
5 6
20 19
20 36
20 21
6 21
6 7
21 22
21 37
7 22
22 38
8 9
8 23
9 24
9 23
24 40
24 25
24 23
23 39
25 40
12 29
29 44
29 30
15 16
16 47
47 70
31 48
19 35
36 35
36 37
37 38
38 62
38 39
39 40
40 63
40 41
41 64
41 42
42 43
42 65
44 43
44 53
35 51
51 59
63 64
63 91
64 92
64 65
43 52
53 52
53 67
69 81
69 70
70 82
52 66
67 66
67 79
58 59
59 60
59 75
60 76
62 90
90 89
90 118
91 92
65 66
66 78
78 79
81 80
81 82
81 97
82 98
86 85
86 87
75 76
75 87
76 88
87 88
87 101
88 89
79 80
79 95
80 96
95 96
96 97
98 97
89 102
100 112
100 99
100 101
112 111
112 113
112 130
99 110
101 114
101 102
114 113
102 116
116 117
116 133
103 104
103 120
104 121
104 105
121 120
121 138
121 122
105 106
105 122
105 123
106 123
122 123
123 139
123 140
123 124
126 125
126 127
127 143
110 128
110 111
128 144
117 134
117 118
133 150
133 134
134 135
134 151
119 120
119 118
120 137
137 138
138 139
138 156
139 140
139 156
140 158
124 141
141 158
141 159
141 125
143 142
144 163
149 150
150 168
150 167
150 151
135 152
158 175
158 159
158 157
159 160
142 160
160 176
182 181
182 183
168 151
168 184
168 185
168 152
167 184
151 152
155 172
155 156
172 156
172 188
172 189
172 173
156 157
156 173
157 174
174 173
174 191
174 175
175 192
175 176
177 176
177 178
177 194
178 195
163 179
180 181
180 179
183 184
184 185
188 189
189 190
173 190
190 191
191 192
192 193
176 193
194 193
194 195
